(set-logic QF_LRA)
(declare-fun X0 () Real )
(declare-fun Y0 () Real )
(declare-fun X1 () Real )
(declare-fun Y1 () Real )
(declare-fun X2 () Real )
(declare-fun Y2 () Real )
(declare-fun X3 () Real )
(declare-fun Y3 () Real )
(declare-fun X4 () Real )
(declare-fun Y4 () Real )
(declare-fun X5 () Real )
(declare-fun Y5 () Real )
(declare-fun X6 () Real )
(declare-fun Y6 () Real )
(declare-fun X7 () Real )
(declare-fun Y7 () Real )
(declare-fun X8 () Real )
(declare-fun Y8 () Real )
(declare-fun X9 () Real )
(declare-fun Y9 () Real )
(declare-fun X10 () Real )
(declare-fun Y10 () Real )
(declare-fun X11 () Real )
(declare-fun Y11 () Real )
(declare-fun Z () Real )
(declare-fun k () Real )
(assert (let
(( $goal (>= Z k) ))
(let
((
$phi ( and 
( or ( <= ( + X0 64 ) X1 )  ( <= ( + X1 44 ) X0 )  ( <= ( + Y0 55 ) Y1 )  ( <= ( + Y1 97 ) Y0 )  )
( or ( <= ( + X0 64 ) X2 )  ( <= ( + X2 80 ) X0 )  ( <= ( + Y0 55 ) Y2 )  ( <= ( + Y2 23 ) Y0 )  )
( or ( <= ( + X0 64 ) X3 )  ( <= ( + X3 91 ) X0 )  ( <= ( + Y0 55 ) Y3 )  ( <= ( + Y3 83 ) Y0 )  )
( or ( <= ( + X0 64 ) X4 )  ( <= ( + X4 93 ) X0 )  ( <= ( + Y0 55 ) Y4 )  ( <= ( + Y4 30 ) Y0 )  )
( or ( <= ( + X0 64 ) X5 )  ( <= ( + X5 35 ) X0 )  ( <= ( + Y0 55 ) Y5 )  ( <= ( + Y5 34 ) Y0 )  )
( or ( <= ( + X0 64 ) X6 )  ( <= ( + X6 11 ) X0 )  ( <= ( + Y0 55 ) Y6 )  ( <= ( + Y6 68 ) Y0 )  )
( or ( <= ( + X0 64 ) X7 )  ( <= ( + X7 1 ) X0 )  ( <= ( + Y0 55 ) Y7 )  ( <= ( + Y7 80 ) Y0 )  )
( or ( <= ( + X0 64 ) X8 )  ( <= ( + X8 17 ) X0 )  ( <= ( + Y0 55 ) Y8 )  ( <= ( + Y8 40 ) Y0 )  )
( or ( <= ( + X0 64 ) X9 )  ( <= ( + X9 54 ) X0 )  ( <= ( + Y0 55 ) Y9 )  ( <= ( + Y9 21 ) Y0 )  )
( or ( <= ( + X0 64 ) X10 )  ( <= ( + X10 49 ) X0 )  ( <= ( + Y0 55 ) Y10 )  ( <= ( + Y10 90 ) Y0 )  )
( or ( <= ( + X0 64 ) X11 )  ( <= ( + X11 42 ) X0 )  ( <= ( + Y0 55 ) Y11 )  ( <= ( + Y11 33 ) Y0 )  )
( or ( <= ( + X1 44 ) X2 )  ( <= ( + X2 80 ) X1 )  ( <= ( + Y1 97 ) Y2 )  ( <= ( + Y2 23 ) Y1 )  )
( or ( <= ( + X1 44 ) X3 )  ( <= ( + X3 91 ) X1 )  ( <= ( + Y1 97 ) Y3 )  ( <= ( + Y3 83 ) Y1 )  )
( or ( <= ( + X1 44 ) X4 )  ( <= ( + X4 93 ) X1 )  ( <= ( + Y1 97 ) Y4 )  ( <= ( + Y4 30 ) Y1 )  )
( or ( <= ( + X1 44 ) X5 )  ( <= ( + X5 35 ) X1 )  ( <= ( + Y1 97 ) Y5 )  ( <= ( + Y5 34 ) Y1 )  )
( or ( <= ( + X1 44 ) X6 )  ( <= ( + X6 11 ) X1 )  ( <= ( + Y1 97 ) Y6 )  ( <= ( + Y6 68 ) Y1 )  )
( or ( <= ( + X1 44 ) X7 )  ( <= ( + X7 1 ) X1 )  ( <= ( + Y1 97 ) Y7 )  ( <= ( + Y7 80 ) Y1 )  )
( or ( <= ( + X1 44 ) X8 )  ( <= ( + X8 17 ) X1 )  ( <= ( + Y1 97 ) Y8 )  ( <= ( + Y8 40 ) Y1 )  )
( or ( <= ( + X1 44 ) X9 )  ( <= ( + X9 54 ) X1 )  ( <= ( + Y1 97 ) Y9 )  ( <= ( + Y9 21 ) Y1 )  )
( or ( <= ( + X1 44 ) X10 )  ( <= ( + X10 49 ) X1 )  ( <= ( + Y1 97 ) Y10 )  ( <= ( + Y10 90 ) Y1 )  )
( or ( <= ( + X1 44 ) X11 )  ( <= ( + X11 42 ) X1 )  ( <= ( + Y1 97 ) Y11 )  ( <= ( + Y11 33 ) Y1 )  )
( or ( <= ( + X2 80 ) X3 )  ( <= ( + X3 91 ) X2 )  ( <= ( + Y2 23 ) Y3 )  ( <= ( + Y3 83 ) Y2 )  )
( or ( <= ( + X2 80 ) X4 )  ( <= ( + X4 93 ) X2 )  ( <= ( + Y2 23 ) Y4 )  ( <= ( + Y4 30 ) Y2 )  )
( or ( <= ( + X2 80 ) X5 )  ( <= ( + X5 35 ) X2 )  ( <= ( + Y2 23 ) Y5 )  ( <= ( + Y5 34 ) Y2 )  )
( or ( <= ( + X2 80 ) X6 )  ( <= ( + X6 11 ) X2 )  ( <= ( + Y2 23 ) Y6 )  ( <= ( + Y6 68 ) Y2 )  )
( or ( <= ( + X2 80 ) X7 )  ( <= ( + X7 1 ) X2 )  ( <= ( + Y2 23 ) Y7 )  ( <= ( + Y7 80 ) Y2 )  )
( or ( <= ( + X2 80 ) X8 )  ( <= ( + X8 17 ) X2 )  ( <= ( + Y2 23 ) Y8 )  ( <= ( + Y8 40 ) Y2 )  )
( or ( <= ( + X2 80 ) X9 )  ( <= ( + X9 54 ) X2 )  ( <= ( + Y2 23 ) Y9 )  ( <= ( + Y9 21 ) Y2 )  )
( or ( <= ( + X2 80 ) X10 )  ( <= ( + X10 49 ) X2 )  ( <= ( + Y2 23 ) Y10 )  ( <= ( + Y10 90 ) Y2 )  )
( or ( <= ( + X2 80 ) X11 )  ( <= ( + X11 42 ) X2 )  ( <= ( + Y2 23 ) Y11 )  ( <= ( + Y11 33 ) Y2 )  )
( or ( <= ( + X3 91 ) X4 )  ( <= ( + X4 93 ) X3 )  ( <= ( + Y3 83 ) Y4 )  ( <= ( + Y4 30 ) Y3 )  )
( or ( <= ( + X3 91 ) X5 )  ( <= ( + X5 35 ) X3 )  ( <= ( + Y3 83 ) Y5 )  ( <= ( + Y5 34 ) Y3 )  )
( or ( <= ( + X3 91 ) X6 )  ( <= ( + X6 11 ) X3 )  ( <= ( + Y3 83 ) Y6 )  ( <= ( + Y6 68 ) Y3 )  )
( or ( <= ( + X3 91 ) X7 )  ( <= ( + X7 1 ) X3 )  ( <= ( + Y3 83 ) Y7 )  ( <= ( + Y7 80 ) Y3 )  )
( or ( <= ( + X3 91 ) X8 )  ( <= ( + X8 17 ) X3 )  ( <= ( + Y3 83 ) Y8 )  ( <= ( + Y8 40 ) Y3 )  )
( or ( <= ( + X3 91 ) X9 )  ( <= ( + X9 54 ) X3 )  ( <= ( + Y3 83 ) Y9 )  ( <= ( + Y9 21 ) Y3 )  )
( or ( <= ( + X3 91 ) X10 )  ( <= ( + X10 49 ) X3 )  ( <= ( + Y3 83 ) Y10 )  ( <= ( + Y10 90 ) Y3 )  )
( or ( <= ( + X3 91 ) X11 )  ( <= ( + X11 42 ) X3 )  ( <= ( + Y3 83 ) Y11 )  ( <= ( + Y11 33 ) Y3 )  )
( or ( <= ( + X4 93 ) X5 )  ( <= ( + X5 35 ) X4 )  ( <= ( + Y4 30 ) Y5 )  ( <= ( + Y5 34 ) Y4 )  )
( or ( <= ( + X4 93 ) X6 )  ( <= ( + X6 11 ) X4 )  ( <= ( + Y4 30 ) Y6 )  ( <= ( + Y6 68 ) Y4 )  )
( or ( <= ( + X4 93 ) X7 )  ( <= ( + X7 1 ) X4 )  ( <= ( + Y4 30 ) Y7 )  ( <= ( + Y7 80 ) Y4 )  )
( or ( <= ( + X4 93 ) X8 )  ( <= ( + X8 17 ) X4 )  ( <= ( + Y4 30 ) Y8 )  ( <= ( + Y8 40 ) Y4 )  )
( or ( <= ( + X4 93 ) X9 )  ( <= ( + X9 54 ) X4 )  ( <= ( + Y4 30 ) Y9 )  ( <= ( + Y9 21 ) Y4 )  )
( or ( <= ( + X4 93 ) X10 )  ( <= ( + X10 49 ) X4 )  ( <= ( + Y4 30 ) Y10 )  ( <= ( + Y10 90 ) Y4 )  )
( or ( <= ( + X4 93 ) X11 )  ( <= ( + X11 42 ) X4 )  ( <= ( + Y4 30 ) Y11 )  ( <= ( + Y11 33 ) Y4 )  )
( or ( <= ( + X5 35 ) X6 )  ( <= ( + X6 11 ) X5 )  ( <= ( + Y5 34 ) Y6 )  ( <= ( + Y6 68 ) Y5 )  )
( or ( <= ( + X5 35 ) X7 )  ( <= ( + X7 1 ) X5 )  ( <= ( + Y5 34 ) Y7 )  ( <= ( + Y7 80 ) Y5 )  )
( or ( <= ( + X5 35 ) X8 )  ( <= ( + X8 17 ) X5 )  ( <= ( + Y5 34 ) Y8 )  ( <= ( + Y8 40 ) Y5 )  )
( or ( <= ( + X5 35 ) X9 )  ( <= ( + X9 54 ) X5 )  ( <= ( + Y5 34 ) Y9 )  ( <= ( + Y9 21 ) Y5 )  )
( or ( <= ( + X5 35 ) X10 )  ( <= ( + X10 49 ) X5 )  ( <= ( + Y5 34 ) Y10 )  ( <= ( + Y10 90 ) Y5 )  )
( or ( <= ( + X5 35 ) X11 )  ( <= ( + X11 42 ) X5 )  ( <= ( + Y5 34 ) Y11 )  ( <= ( + Y11 33 ) Y5 )  )
( or ( <= ( + X6 11 ) X7 )  ( <= ( + X7 1 ) X6 )  ( <= ( + Y6 68 ) Y7 )  ( <= ( + Y7 80 ) Y6 )  )
( or ( <= ( + X6 11 ) X8 )  ( <= ( + X8 17 ) X6 )  ( <= ( + Y6 68 ) Y8 )  ( <= ( + Y8 40 ) Y6 )  )
( or ( <= ( + X6 11 ) X9 )  ( <= ( + X9 54 ) X6 )  ( <= ( + Y6 68 ) Y9 )  ( <= ( + Y9 21 ) Y6 )  )
( or ( <= ( + X6 11 ) X10 )  ( <= ( + X10 49 ) X6 )  ( <= ( + Y6 68 ) Y10 )  ( <= ( + Y10 90 ) Y6 )  )
( or ( <= ( + X6 11 ) X11 )  ( <= ( + X11 42 ) X6 )  ( <= ( + Y6 68 ) Y11 )  ( <= ( + Y11 33 ) Y6 )  )
( or ( <= ( + X7 1 ) X8 )  ( <= ( + X8 17 ) X7 )  ( <= ( + Y7 80 ) Y8 )  ( <= ( + Y8 40 ) Y7 )  )
( or ( <= ( + X7 1 ) X9 )  ( <= ( + X9 54 ) X7 )  ( <= ( + Y7 80 ) Y9 )  ( <= ( + Y9 21 ) Y7 )  )
( or ( <= ( + X7 1 ) X10 )  ( <= ( + X10 49 ) X7 )  ( <= ( + Y7 80 ) Y10 )  ( <= ( + Y10 90 ) Y7 )  )
( or ( <= ( + X7 1 ) X11 )  ( <= ( + X11 42 ) X7 )  ( <= ( + Y7 80 ) Y11 )  ( <= ( + Y11 33 ) Y7 )  )
( or ( <= ( + X8 17 ) X9 )  ( <= ( + X9 54 ) X8 )  ( <= ( + Y8 40 ) Y9 )  ( <= ( + Y9 21 ) Y8 )  )
( or ( <= ( + X8 17 ) X10 )  ( <= ( + X10 49 ) X8 )  ( <= ( + Y8 40 ) Y10 )  ( <= ( + Y10 90 ) Y8 )  )
( or ( <= ( + X8 17 ) X11 )  ( <= ( + X11 42 ) X8 )  ( <= ( + Y8 40 ) Y11 )  ( <= ( + Y11 33 ) Y8 )  )
( or ( <= ( + X9 54 ) X10 )  ( <= ( + X10 49 ) X9 )  ( <= ( + Y9 21 ) Y10 )  ( <= ( + Y10 90 ) Y9 )  )
( or ( <= ( + X9 54 ) X11 )  ( <= ( + X11 42 ) X9 )  ( <= ( + Y9 21 ) Y11 )  ( <= ( + Y11 33 ) Y9 )  )
( or ( <= ( + X10 49 ) X11 )  ( <= ( + X11 42 ) X10 )  ( <= ( + Y10 90 ) Y11 )  ( <= ( + Y11 33 ) Y10 )  )
( >= X0 0)
( <= ( + X0 64) Z)
( >= Y0 0)
( <= ( + Y0 55 ) 100)
( >= X1 0)
( <= ( + X1 44) Z)
( >= Y1 0)
( <= ( + Y1 97 ) 100)
( >= X2 0)
( <= ( + X2 80) Z)
( >= Y2 0)
( <= ( + Y2 23 ) 100)
( >= X3 0)
( <= ( + X3 91) Z)
( >= Y3 0)
( <= ( + Y3 83 ) 100)
( >= X4 0)
( <= ( + X4 93) Z)
( >= Y4 0)
( <= ( + Y4 30 ) 100)
( >= X5 0)
( <= ( + X5 35) Z)
( >= Y5 0)
( <= ( + Y5 34 ) 100)
( >= X6 0)
( <= ( + X6 11) Z)
( >= Y6 0)
( <= ( + Y6 68 ) 100)
( >= X7 0)
( <= ( + X7 1) Z)
( >= Y7 0)
( <= ( + Y7 80 ) 100)
( >= X8 0)
( <= ( + X8 17) Z)
( >= Y8 0)
( <= ( + Y8 40 ) 100)
( >= X9 0)
( <= ( + X9 54) Z)
( >= Y9 0)
( <= ( + Y9 21 ) 100)
( >= X10 0)
( <= ( + X10 49) Z)
( >= Y10 0)
( <= ( + Y10 90 ) 100)
( >= X11 0)
( <= ( + X11 42) Z)
( >= Y11 0)
( <= ( + Y11 33 ) 100)
) )
)(=> $phi $goal))))